p cnf 10 45
2 -4 9 
8 -6 -2 
-10 -8 2 
2 7 3 
-4 6 2 
5 7 6 
8 -6 -4 
2 -5 -2 
8 -6 -5 
-1 -10 -3 
7 1 -2 
10 -3 -7 
-6 -5 7 
8 6 8 
-5 3 -3 
-7 -1 8 
7 6 -6 
10 -4 9 
-6 5 -9 
-3 8 -10 
-5 -10 2 
10 -1 6 
10 3 8 
-7 -5 4 
-5 1 -10 
-5 1 -10 
8 7 5 
1 -8 2 
-7 -1 9 
2 -5 7 
-2 -4 1 
-5 -6 -2 
-5 -1 1 
4 -3 5 
-10 6 10 
4 -7 -7 
-9 -5 -8 
-7 9 -7 
-7 -5 -2 
-9 -6 -4 
-8 6 -9 
-3 -8 -8 
5 10 -4 
1 8 7 
10 4 7 

